examples/inputs/input14.dzn
n = 52;
l = 450;
s = 450;
r = 450;
f = 100;
forbidden = [| 46, 48
	| 43, 45
	| 9, 37
	| 26, 39
	| 6, 48
	| 26, 17
	| 48, 31
	| 35, 45
	| 47, 28
	| 37, 30
	| 32, 5
	| 31, 15
	| 28, 21
	| 31, 27
	| 27, 46
	| 45, 45
	| 48, 34
	| 35, 48
	| 32, 20
	| 49, 25
	| 30, 17
	| 45, 12
	| 38, 33
	| 13, 24
	| 42, 23
	| 8, 48
	| 10, 12
	| 6, 31
	| 50, 49
	| 28, 28
	| 23, 43
	| 25, 43
	| 16, 27
	| 11, 1
	| 35, 20
	| 34, 5
	| 41, 47
	| 7, 19
	| 34, 33
	| 35, 47
	| 50, 4
	| 17, 45
	| 27, 28
	| 39, 35
	| 36, 38
	| 18, 39
	| 43, 35
	| 31, 17
	| 22, 30
	| 5, 7
	| 19, 39
	| 19, 17
	| 5, 48
	| 25, 24
	| 12, 41
	| 8, 9
	| 22, 40
	| 16, 34
	| 6, 11
	| 15, 44
	| 23, 20
	| 44, 13
	| 7, 27
	| 13, 51
	| 23, 39
	| 39, 12
	| 46, 13
	| 13, 4
	| 46, 40
	| 4, 7
	| 33, 40
	| 49, 27
	| 8, 21
	| 40, 27
	| 15, 34
	| 23, 37
	| 19, 11
	| 8, 4
	| 46, 41
	| 10, 40
	| 43, 5
	| 51, 48
	| 52, 21
	| 36, 18
	| 34, 22
	| 14, 10
	| 35, 28
	| 11, 20
	| 34, 13
	| 47, 13
	| 22, 34
	| 4, 5
	| 41, 18
	| 42, 5
	| 10, 16
	| 23, 12
	| 32, 26
	| 25, 11
	| 20, 18
	| 12, 23
	|];