examples/inputs/input14.lp
#const n = 52.
#const l = 450.
#const s = 450.
#const r = 450.
#const f = 100.
val(46, 48, xxx).
val(43, 45, xxx).
val(9, 37, xxx).
val(26, 39, xxx).
val(6, 48, xxx).
val(26, 17, xxx).
val(48, 31, xxx).
val(35, 45, xxx).
val(47, 28, xxx).
val(37, 30, xxx).
val(32, 5, xxx).
val(31, 15, xxx).
val(28, 21, xxx).
val(31, 27, xxx).
val(27, 46, xxx).
val(45, 45, xxx).
val(48, 34, xxx).
val(35, 48, xxx).
val(32, 20, xxx).
val(49, 25, xxx).
val(30, 17, xxx).
val(45, 12, xxx).
val(38, 33, xxx).
val(13, 24, xxx).
val(42, 23, xxx).
val(8, 48, xxx).
val(10, 12, xxx).
val(6, 31, xxx).
val(50, 49, xxx).
val(28, 28, xxx).
val(23, 43, xxx).
val(25, 43, xxx).
val(16, 27, xxx).
val(11, 1, xxx).
val(35, 20, xxx).
val(34, 5, xxx).
val(41, 47, xxx).
val(7, 19, xxx).
val(34, 33, xxx).
val(35, 47, xxx).
val(50, 4, xxx).
val(17, 45, xxx).
val(27, 28, xxx).
val(39, 35, xxx).
val(36, 38, xxx).
val(18, 39, xxx).
val(43, 35, xxx).
val(31, 17, xxx).
val(22, 30, xxx).
val(5, 7, xxx).
val(19, 39, xxx).
val(19, 17, xxx).
val(5, 48, xxx).
val(25, 24, xxx).
val(12, 41, xxx).
val(8, 9, xxx).
val(22, 40, xxx).
val(16, 34, xxx).
val(6, 11, xxx).
val(15, 44, xxx).
val(23, 20, xxx).
val(44, 13, xxx).
val(7, 27, xxx).
val(13, 51, xxx).
val(23, 39, xxx).
val(39, 12, xxx).
val(46, 13, xxx).
val(13, 4, xxx).
val(46, 40, xxx).
val(4, 7, xxx).
val(33, 40, xxx).
val(49, 27, xxx).
val(8, 21, xxx).
val(40, 27, xxx).
val(15, 34, xxx).
val(23, 37, xxx).
val(19, 11, xxx).
val(8, 4, xxx).
val(46, 41, xxx).
val(10, 40, xxx).
val(43, 5, xxx).
val(51, 48, xxx).
val(52, 21, xxx).
val(36, 18, xxx).
val(34, 22, xxx).
val(14, 10, xxx).
val(35, 28, xxx).
val(11, 20, xxx).
val(34, 13, xxx).
val(47, 13, xxx).
val(22, 34, xxx).
val(4, 5, xxx).
val(41, 18, xxx).
val(42, 5, xxx).
val(10, 16, xxx).
val(23, 12, xxx).
val(32, 26, xxx).
val(25, 11, xxx).
val(20, 18, xxx).
val(12, 23, xxx).